\ENCODING=ISO-8859-1
\Problem name: instances

Maximize
 obj:
Subject To
 c1: 75 x1 - 64 x2 + 34 x3 - 19 x4 + 66 x5 + 64 x6 + 75 x7 + 79 x9 + 4 x10
     <= 117
 c2: 67 x1 + 42 x2 + 95 x3 + 18 x4 + 3 x5 + 59 x6 + 74 x7 + 65 x8 - 98 x9
     + 32 x10 <= 273
 c3: 14 x2 + 14 x3 + 69 x4 + 78 x5 + x6 + 70 x7 + 8 x8 + 24 x9 + 86 x10 <= 168
 c4: 45 x1 - 30 x2 + 67 x3 + 42 x4 - 92 x6 + 4 x7 + 17 x8 + 85 x10 <= 137
 c5: 61 x1 + 17 x2 + 41 x3 + 95 x4 + 48 x5 + 90 x6 + 25 x7 + 15 x8 + 59 x9
     + 5 x10 <= 353
Bounds
      x1 >= 0
      x2 >= 0
      x3 >= 0
      x4 >= 0
      x5 >= 0
      x6 >= 0
      x7 >= 0
      x8 >= 0
      x9 >= 0
      x10 >= 0
Generals
 x1  x2  x3  x4  x5  x6  x7  x8  x9  x10 
End
